/*********************************************
 * OPL 20.1.0.0 Data
 * Author: tvaucour
 * Creation Date: 31 mars 2023 at 08:16:33
 *********************************************/

 nbPatterns = 21;
 nbPatGen = 500;
 nbPatAct = 200;
 
 SizeRoll = [72,68,65,63,60,56,52,49,47,45,41,36,31,27,24,22,20,17,16,14,11];
 PatternReq = [23,80,102,23,57,45,83,125,240,97,435,610,395,350,303,321,160,266,253,211,175];
 //Pattern = [0,0,0,0,0,0,0,0,0,0,0,0,0,0,0,0,0,0,0,0,0];